0,66,66,77,108,15,104,74,54,44,35
66,0,19,40,43,61,39,28,29,58,49
66,19,0,59,55,57,40,47,45,45,60
77,40,59,0,48,81,64,12,24,89,45
108,43,55,48,0,105,27,41,59,100,84
15,61,57,81,105,0,96,74,57,28,43
104,39,40,64,27,96,0,54,65,84,88
74,28,47,12,41,74,54,0,19,80,44
54,29,45,24,59,57,65,19,0,67,25
44,58,45,89,100,28,84,80,67,0,63
35,49,60,45,84,43,88,44,25,63,0